6 7 2.7
3 3 3 1 147 2 123 3 145 3 4 140 2 130 1 123 3 4 150 5 160 7 200
1 2
2 1 2
2 0 1
3 3 2 1 214 3 150 3 3 87 2 66 4 99 3 5 178 6 95 7 150
2 0 2
2 0 1
1 2
3 3 2 1 87 2 62 3 7 145 3 180 4 105 3 4 190 5 100 6 153
1 1
1 1
2 1 2
1 3 2 1 87 2 65 2 3 250 5 173 2 4 145 6 136
1 2
2 3 3 2 123 3 145 1 128 3 3 86 4 65 5 47 2 5 110 6 85
1 1
1 0
3 3 3 2 145 3 320 4 154 3 4 150 3 123 5 192 3 5 120 6 240 7 180
2 0 1
1 1
2 0 1
